NAME: random-64-15020
TYPE: TSP
COMMENT: size=64 seed=15020
DIMENSION: 130
EDGE_WEIGHT_TYPE: EUC_2D
NODE_COORD_SECTION
+0 140 155
-0 140 155
+1 306 104
-1 98 748
+2 119 947
-2 80 53
+3 633 47
-3 846 528
+4 780 175
-4 374 299
+5 370 575
-5 818 315
+6 477 302
-6 473 373
+7 864 143
-7 509 664
+8 766 676
-8 615 950
+9 786 413
-9 985 331
+10 970 661
-10 322 915
+11 805 23
-11 471 484
+12 768 702
-12 756 835
+13 723 417
-13 148 300
+14 851 66
-14 168 937
+15 651 1
-15 142 703
+16 127 967
-16 481 946
+17 515 431
-17 520 77
+18 533 185
-18 768 455
+19 209 176
-19 761 884
+20 149 226
-20 594 40
+21 813 515
-21 574 15
+22 903 98
-22 966 260
+23 116 917
-23 974 538
+24 37 307
-24 645 247
+25 730 824
-25 909 894
+26 464 18
-26 896 28
+27 411 991
-27 377 987
+28 37 934
-28 605 351
+29 687 815
-29 462 767
+30 398 912
-30 765 526
+31 159 693
-31 971 459
+32 221 697
-32 506 229
+33 714 289
-33 622 939
+34 518 135
-34 527 120
+35 439 170
-35 369 565
+36 777 867
-36 690 432
+37 158 81
-37 497 515
+38 776 380
-38 715 663
+39 539 893
-39 708 406
+40 326 188
-40 251 756
+41 138 559
-41 365 829
+42 863 866
-42 930 486
+43 812 668
-43 531 711
+44 400 417
-44 446 754
+45 597 269
-45 390 309
+46 751 949
-46 991 856
+47 328 690
-47 414 807
+48 701 787
-48 756 206
+49 857 779
-49 674 298
+50 724 991
-50 938 175
+51 298 85
-51 236 938
+52 589 894
-52 746 538
+53 477 80
-53 8 264
+54 338 576
-54 640 458
+55 424 765
-55 427 107
+56 735 859
-56 364 752
+57 61 771
-57 205 104
+58 890 450
-58 792 360
+59 801 47
-59 786 70
+60 320 312
-60 866 715
+61 112 521
-61 638 531
+62 537 341
-62 704 349
+63 255 112
-63 302 702
+64 663 986
-64 919 19
PRECEDENCE_SECTION
+0 -0
+1 -1
+2 -2
+3 -3
+4 -4
+5 -5
+6 -6
+7 -7
+8 -8
+9 -9
+10 -10
+11 -11
+12 -12
+13 -13
+14 -14
+15 -15
+16 -16
+17 -17
+18 -18
+19 -19
+20 -20
+21 -21
+22 -22
+23 -23
+24 -24
+25 -25
+26 -26
+27 -27
+28 -28
+29 -29
+30 -30
+31 -31
+32 -32
+33 -33
+34 -34
+35 -35
+36 -36
+37 -37
+38 -38
+39 -39
+40 -40
+41 -41
+42 -42
+43 -43
+44 -44
+45 -45
+46 -46
+47 -47
+48 -48
+49 -49
+50 -50
+51 -51
+52 -52
+53 -53
+54 -54
+55 -55
+56 -56
+57 -57
+58 -58
+59 -59
+60 -60
+61 -61
+62 -62
+63 -63
+64 -64
EOF
